(set-logic NIA)

(set-option :produce-models true)
(set-option :incremental true)

; Deklarace promennych pro vstupy
; ===============================

; Ceny
(declare-fun c1 () Int)
(declare-fun c2 () Int)
(declare-fun c3 () Int)
(declare-fun c4 () Int)
(declare-fun c5 () Int)

; Kaloricke hodnoty
(declare-fun k1 () Int)
(declare-fun k2 () Int)
(declare-fun k3 () Int)
(declare-fun k4 () Int)
(declare-fun k5 () Int)

; Maximalni pocty porci
(declare-fun m1 () Int)
(declare-fun m2 () Int)
(declare-fun m3 () Int)
(declare-fun m4 () Int)
(declare-fun m5 () Int)

; Maximalni cena obedu
(declare-fun max_cena () Int)

; Deklarace promennych pro reseni
(declare-fun n1 () Int)
(declare-fun n2 () Int)
(declare-fun n3 () Int)
(declare-fun n4 () Int)
(declare-fun n5 () Int)
(declare-fun best () Int)

;;;;;;;;;;;;;;;;;;;;;;;;;;;;;;;;;;;;;
;;;;;;;; START OF SOLUTION ;;;;;;;;;;
;;;;;;;;;;;;;;;;;;;;;;;;;;;;;;;;;;;;;

; Zde doplnte vase reseni

;;;;;;;;;;;;;;;;;;;;;;;;;;;;;;;;;;;;;
;;;;;;;;; END OF SOLUTION ;;;;;;;;;;;
;;;;;;;;;;;;;;;;;;;;;;;;;;;;;;;;;;;;;

; Testovaci vstupy
; ================

(echo "Test 1.a - ocekavany vystup je sat, promenna best ma hodnotu 34")
(check-sat-assuming (
  (= c1 7) (= c2 3) (= c3 6) (= c4 10) (= c5 8)
  (= k1 5) (= k2 2) (= k3 4) (= k4 7)  (= k5 3)
  (= m1 3) (= m2 2) (= m3 4) (= m4 1)  (= m5 3)
  (= max_cena 50)
))
(get-value (best n1 n2 n3 n4 n5))

(echo "Test 1.b - neexistuje jine reseni nez 34, ocekavany vystup je unsat")
(check-sat-assuming (
  (= c1 7) (= c2 3) (= c3 6) (= c4 10) (= c5 8)
  (= k1 5) (= k2 2) (= k3 4) (= k4 7)  (= k5 3)
  (= m1 3) (= m2 2) (= m3 4) (= m4 1)  (= m5 3)
  (= max_cena 50)
  (not (= best 34))
))

; =========================================================


(echo "Test 2.a - ocekavany vystup je sat, promenna best ma hodnotu 0")
(check-sat-assuming (
  (= c1 7) (= c2 3) (= c3 6) (= c4 10) (= c5 8)
  (= k1 5) (= k2 2) (= k3 4) (= k4 7)  (= k5 3)
  (= m1 3) (= m2 2) (= m3 4) (= m4 1)  (= m5 3)
  (= max_cena 0)
))
(get-value (best n1 n2 n3 n4 n5))

(echo "Test 2.b - neexistuje jine reseni nez 0, ocekavany vystup je unsat")
(check-sat-assuming (
  (= c1 7) (= c2 3) (= c3 6) (= c4 10) (= c5 8)
  (= k1 5) (= k2 2) (= k3 4) (= k4 7)  (= k5 3)
  (= m1 3) (= m2 2) (= m3 4) (= m4 1)  (= m5 3)
  (= max_cena 0)
  (not (= best 0))
))
